NAME : kroC100.9554.tour
COMMENT : Length = 9554
COMMENT : Found by LKH [Keld Helsgaun] Wed May 29 17:05:39 2013
TYPE : TOUR
DIMENSION : 20
TOUR_SECTION
85
15
67
47
8
17
39
71
86
95
23
89
41
60
92
11
51
9
61
46
-1
EOF
